(set-logic HORN)
(set-info :source |
    Benchmark: C_VC
    Output by Princess (http://www.philipp.ruemmer.org/princess.shtml)
|)
(set-info :status unsat)
;===============================================================================
; Encoding of Heap sorts and operations
;-------------------------------------------------------------------------------
(define-sort Addr() Int)
(declare-datatypes ((AddrRange 0))
                   (((AddrRange (AddrRangeStart Addr) (AddrRangeSize Int)))))

(declare-datatypes ((HeapObject 0) (TSLL 0))
                   (((O_Int (getInt Int)) (O_UInt (getUInt Int)) (O_Addr (getAddr Addr)) (O_AddrRange (getAddrRange AddrRange)) (O_TSLL (getTSLL TSLL)) (defObj))
                   ((TSLL (|TSLL::next| Addr) (|TSLL::prev| Addr) (|TSLL::opt| Addr) (|TSLL::data| Int)))))
(declare-datatypes ((BatchAllocResHeap 0) (AllocResHeap 0) (Heap 0))
                   (((BatchAllocResHeap   (newBatchHeap Heap) (newAddrRange AddrRange)))
                   ((AllocResHeap   (newHeap Heap) (newAddr Addr)))
                    ((HeapCtor (HeapSize Int)
                               (HeapContents (Array Addr HeapObject))))))
(define-fun nullAddr  () Addr 0)
(define-fun valid     ((h Heap) (p Addr)) Bool
  (and (>= (HeapSize h) p) (> p 0)))
(define-fun emptyHeap () Heap (
  HeapCtor 0 (( as const (Array Addr HeapObject)) defObj)))
(define-fun read ((h Heap) (p Addr)) HeapObject
  (ite (valid h p)
       (select (HeapContents h) p)
       defObj))
(define-fun write ((h Heap) (p Addr) (o HeapObject)) Heap
  (ite (valid h p)
       (HeapCtor (HeapSize h) (store (HeapContents h) p o))
       h))
(define-fun alloc   ((h Heap) (o HeapObject)) AllocResHeap
  (AllocResHeap (HeapCtor (+ 1 (HeapSize h))
                    (store (HeapContents h) (+ 1 (HeapSize h)) o))
          (+ 1 (HeapSize h))))

;===============================================================================
(declare-fun inv_main1001_2 (Heap Addr Addr) Bool)
(declare-fun inv_main1009_12 (Heap Addr Addr) Bool)
(declare-fun inv_main997_2 (Heap) Bool)
(declare-fun inv_main_18 (Heap Addr Addr) Bool)
(declare-fun inv_main_25 (Heap Addr Addr) Bool)
(assert (forall ((var0 Heap)) (or (not (= var0 emptyHeap)) (inv_main997_2 var0))))
(assert (forall ((var0 Addr) (var1 Addr) (var2 Heap)) (or (not (and (inv_main_18 var2 var1 var0) (= var0 nullAddr))) (inv_main_25 var2 var1 var1))))
(assert (forall ((var0 Heap) (var1 Addr) (var2 Addr) (var3 Heap) (var4 Addr) (var5 Addr) (var6 Addr) (var7 Addr) (var8 Addr) (var9 Heap) (var10 Heap) (var11 Int) (var12 Addr) (var13 Addr) (var14 Heap)) (or (not (and (inv_main_25 var14 var13 var12) (and (and (and (and (= var11 2) (and (and (and (= var10 var9) (= var8 var7)) (= var6 var5)) (= var11 (|TSLL::data| (getTSLL (read var9 var7)))))) (and (and (and (and (= var9 var14) (= var7 var12)) (= var4 var12)) (= var5 (|TSLL::next| (getTSLL (read var14 var12))))) (not (= var12 nullAddr)))) (and (and (= var3 (write var10 (|TSLL::opt| (getTSLL (read var10 var8))) defObj)) (= var2 var8)) (= var1 var6))) (= var0 (write var3 var2 defObj))))) (inv_main_25 var0 var2 var1))))
(assert (forall ((var0 Heap) (var1 Addr) (var2 Addr) (var3 Addr) (var4 Addr) (var5 Addr) (var6 Heap) (var7 Heap) (var8 Int) (var9 Addr) (var10 Addr) (var11 Heap)) (or (not (and (inv_main_25 var11 var10 var9) (and (and (and (not (= var8 2)) (and (and (and (= var7 var6) (= var5 var4)) (= var3 var2)) (= var8 (|TSLL::data| (getTSLL (read var6 var4)))))) (and (and (and (and (= var6 var11) (= var4 var9)) (= var1 var9)) (= var2 (|TSLL::next| (getTSLL (read var11 var9))))) (not (= var9 nullAddr)))) (= var0 (write var7 var5 defObj))))) (inv_main_25 var0 var5 var3))))
(assert (forall ((var0 Addr) (var1 Addr) (var2 Heap) (var3 Int) (var4 Addr) (var5 Addr) (var6 Heap)) (or (not (and (inv_main_18 var6 var5 var4) (and (and (not (= var3 2)) (and (and (and (= var2 var6) (= var1 var5)) (= var0 var4)) (= var3 (|TSLL::data| (getTSLL (read var6 var4)))))) (not (= var4 nullAddr))))) (inv_main1009_12 var2 var1 var0))))
(assert (forall ((var0 Addr) (var1 Addr) (var2 Heap) (var3 Addr) (var4 Addr) (var5 Addr) (var6 Heap) (var7 Addr) (var8 Addr) (var9 Heap) (var10 Int) (var11 Int) (var12 Addr) (var13 Addr) (var14 Heap)) (or (not (and (inv_main_18 var14 var13 var12) (and (and (and (= var11 0) (and (and (= var10 2) (and (and (and (= var9 var14) (= var8 var13)) (= var7 var12)) (= var10 (|TSLL::data| (getTSLL (read var14 var12)))))) (and (and (and (= var6 var9) (= var5 var8)) (= var4 var7)) (= var3 (|TSLL::opt| (getTSLL (read var9 var7))))))) (and (and (and (= var2 var6) (= var1 var5)) (= var0 var4)) (or (and (= var3 var4) (= var11 1)) (and (not (= var3 var4)) (= var11 0))))) (not (= var12 nullAddr))))) (inv_main1009_12 var2 var1 var0))))
(assert (forall ((var0 Heap) (var1 Addr) (var2 Addr) (var3 Heap) (var4 Addr) (var5 Addr) (var6 Heap) (var7 Addr) (var8 Addr) (var9 Heap) (var10 Int) (var11 Addr) (var12 Addr) (var13 Addr) (var14 TSLL) (var15 Heap) (var16 Addr) (var17 Addr) (var18 Addr) (var19 Addr) (var20 Addr) (var21 Heap) (var22 Heap) (var23 Int) (var24 Addr) (var25 Addr) (var26 Addr) (var27 Addr) (var28 Addr) (var29 TSLL) (var30 Heap) (var31 Heap) (var32 Addr) (var33 Addr) (var34 Heap)) (or (not (and (inv_main1001_2 var34 var33 var32) (and (and (and (and (and (and (and (= var31 (newHeap (alloc var30 (O_TSLL var29)))) (= var28 var27)) (= var26 var25)) (= var24 (newAddr (alloc var30 (O_TSLL var29))))) (and (not (= var23 0)) (and (and (and (and (and (and (= var22 var21) (= var20 var19)) (= var18 var17)) (= var16 (|TSLL::next| (getTSLL (read var21 var17))))) (and (and (and (and (and (= var15 (newHeap (alloc var34 (O_TSLL var14)))) (= var13 var33)) (= var12 var32)) (= var11 (newAddr (alloc var34 (O_TSLL var14))))) (not (= var10 0))) (and (and (= var9 (write var15 var12 (O_TSLL (TSLL var11 (|TSLL::prev| (getTSLL (read var15 var12))) (|TSLL::opt| (getTSLL (read var15 var12))) (|TSLL::data| (getTSLL (read var15 var12))))))) (= var8 var13)) (= var7 var12)))) (and (and (= var21 (write var9 (|TSLL::next| (getTSLL (read var9 var7))) (O_TSLL (TSLL (|TSLL::next| (getTSLL (read var9 (|TSLL::next| (getTSLL (read var9 var7)))))) var7 (|TSLL::opt| (getTSLL (read var9 (|TSLL::next| (getTSLL (read var9 var7)))))) (|TSLL::data| (getTSLL (read var9 (|TSLL::next| (getTSLL (read var9 var7)))))))))) (= var19 var8)) (= var17 var7))) (and (and (= var6 (write var22 var16 (O_TSLL (TSLL nullAddr (|TSLL::prev| (getTSLL (read var22 var16))) (|TSLL::opt| (getTSLL (read var22 var16))) (|TSLL::data| (getTSLL (read var22 var16))))))) (= var5 var20)) (= var4 var16))))) (and (and (= var30 (write var6 var4 (O_TSLL (TSLL (|TSLL::next| (getTSLL (read var6 var4))) (|TSLL::prev| (getTSLL (read var6 var4))) (|TSLL::opt| (getTSLL (read var6 var4))) 2)))) (= var27 var5)) (= var25 var4))) (and (and (= var3 (write var31 var26 (O_TSLL (TSLL (|TSLL::next| (getTSLL (read var31 var26))) (|TSLL::prev| (getTSLL (read var31 var26))) var24 (|TSLL::data| (getTSLL (read var31 var26))))))) (= var2 var28)) (= var1 var26))) (= var0 (write var3 (|TSLL::opt| (getTSLL (read var3 var1))) (O_TSLL (TSLL nullAddr (|TSLL::prev| (getTSLL (read var3 (|TSLL::opt| (getTSLL (read var3 var1)))))) (|TSLL::opt| (getTSLL (read var3 (|TSLL::opt| (getTSLL (read var3 var1)))))) (|TSLL::data| (getTSLL (read var3 (|TSLL::opt| (getTSLL (read var3 var1))))))))))))) (inv_main1001_2 var0 var2 var1))))
(assert (forall ((var0 Heap) (var1 Addr) (var2 Addr) (var3 Heap) (var4 Addr) (var5 Addr) (var6 Heap) (var7 Addr) (var8 Addr) (var9 Heap) (var10 Int) (var11 Addr) (var12 Addr) (var13 Addr) (var14 TSLL) (var15 Heap) (var16 Addr) (var17 Addr) (var18 Addr) (var19 Addr) (var20 Addr) (var21 Heap) (var22 Heap) (var23 Int) (var24 Int) (var25 Addr) (var26 Addr) (var27 Heap)) (or (not (and (inv_main1001_2 var27 var26 var25) (and (and (and (not (= var24 0)) (and (= var23 0) (and (and (and (and (and (and (= var22 var21) (= var20 var19)) (= var18 var17)) (= var16 (|TSLL::next| (getTSLL (read var21 var17))))) (and (and (and (and (and (= var15 (newHeap (alloc var27 (O_TSLL var14)))) (= var13 var26)) (= var12 var25)) (= var11 (newAddr (alloc var27 (O_TSLL var14))))) (not (= var10 0))) (and (and (= var9 (write var15 var12 (O_TSLL (TSLL var11 (|TSLL::prev| (getTSLL (read var15 var12))) (|TSLL::opt| (getTSLL (read var15 var12))) (|TSLL::data| (getTSLL (read var15 var12))))))) (= var8 var13)) (= var7 var12)))) (and (and (= var21 (write var9 (|TSLL::next| (getTSLL (read var9 var7))) (O_TSLL (TSLL (|TSLL::next| (getTSLL (read var9 (|TSLL::next| (getTSLL (read var9 var7)))))) var7 (|TSLL::opt| (getTSLL (read var9 (|TSLL::next| (getTSLL (read var9 var7)))))) (|TSLL::data| (getTSLL (read var9 (|TSLL::next| (getTSLL (read var9 var7)))))))))) (= var19 var8)) (= var17 var7))) (and (and (= var6 (write var22 var16 (O_TSLL (TSLL nullAddr (|TSLL::prev| (getTSLL (read var22 var16))) (|TSLL::opt| (getTSLL (read var22 var16))) (|TSLL::data| (getTSLL (read var22 var16))))))) (= var5 var20)) (= var4 var16))))) (and (and (= var3 (write var6 var4 (O_TSLL (TSLL (|TSLL::next| (getTSLL (read var6 var4))) (|TSLL::prev| (getTSLL (read var6 var4))) (|TSLL::opt| (getTSLL (read var6 var4))) 1)))) (= var2 var5)) (= var1 var4))) (= var0 (write var3 var1 (O_TSLL (TSLL (|TSLL::next| (getTSLL (read var3 var1))) (|TSLL::prev| (getTSLL (read var3 var1))) var1 (|TSLL::data| (getTSLL (read var3 var1)))))))))) (inv_main1001_2 var0 var2 var1))))
(assert (forall ((var0 Heap) (var1 Addr) (var2 Addr) (var3 Heap) (var4 Addr) (var5 Addr) (var6 Heap) (var7 Addr) (var8 Addr) (var9 Heap) (var10 Int) (var11 Addr) (var12 Addr) (var13 Addr) (var14 TSLL) (var15 Heap) (var16 Addr) (var17 Addr) (var18 Addr) (var19 Addr) (var20 Addr) (var21 Heap) (var22 Heap) (var23 Int) (var24 Int) (var25 Addr) (var26 Addr) (var27 Heap)) (or (not (and (inv_main1001_2 var27 var26 var25) (and (and (and (= var24 0) (and (= var23 0) (and (and (and (and (and (and (= var22 var21) (= var20 var19)) (= var18 var17)) (= var16 (|TSLL::next| (getTSLL (read var21 var17))))) (and (and (and (and (and (= var15 (newHeap (alloc var27 (O_TSLL var14)))) (= var13 var26)) (= var12 var25)) (= var11 (newAddr (alloc var27 (O_TSLL var14))))) (not (= var10 0))) (and (and (= var9 (write var15 var12 (O_TSLL (TSLL var11 (|TSLL::prev| (getTSLL (read var15 var12))) (|TSLL::opt| (getTSLL (read var15 var12))) (|TSLL::data| (getTSLL (read var15 var12))))))) (= var8 var13)) (= var7 var12)))) (and (and (= var21 (write var9 (|TSLL::next| (getTSLL (read var9 var7))) (O_TSLL (TSLL (|TSLL::next| (getTSLL (read var9 (|TSLL::next| (getTSLL (read var9 var7)))))) var7 (|TSLL::opt| (getTSLL (read var9 (|TSLL::next| (getTSLL (read var9 var7)))))) (|TSLL::data| (getTSLL (read var9 (|TSLL::next| (getTSLL (read var9 var7)))))))))) (= var19 var8)) (= var17 var7))) (and (and (= var6 (write var22 var16 (O_TSLL (TSLL nullAddr (|TSLL::prev| (getTSLL (read var22 var16))) (|TSLL::opt| (getTSLL (read var22 var16))) (|TSLL::data| (getTSLL (read var22 var16))))))) (= var5 var20)) (= var4 var16))))) (and (and (= var3 (write var6 var4 (O_TSLL (TSLL (|TSLL::next| (getTSLL (read var6 var4))) (|TSLL::prev| (getTSLL (read var6 var4))) (|TSLL::opt| (getTSLL (read var6 var4))) 0)))) (= var2 var5)) (= var1 var4))) (= var0 (write var3 var1 (O_TSLL (TSLL (|TSLL::next| (getTSLL (read var3 var1))) (|TSLL::prev| (getTSLL (read var3 var1))) var1 (|TSLL::data| (getTSLL (read var3 var1)))))))))) (inv_main1001_2 var0 var2 var1))))
(assert (forall ((var0 Addr) (var1 Heap) (var2 Addr) (var3 Heap) (var4 Addr) (var5 Heap) (var6 Addr) (var7 Heap) (var8 Addr) (var9 TSLL) (var10 Heap) (var11 Int) (var12 Addr) (var13 Addr) (var14 Addr) (var15 TSLL) (var16 Heap) (var17 Heap) (var18 Heap)) (or (not (and (inv_main997_2 var18) (and (and (and (and (and (and (= var17 (newHeap (alloc var16 (O_TSLL var15)))) (= var14 var13)) (= var12 (newAddr (alloc var16 (O_TSLL var15))))) (and (not (= var11 0)) (and (and (and (= var10 (newHeap (alloc var18 (O_TSLL var9)))) (= var8 (newAddr (alloc var18 (O_TSLL var9))))) (and (= var7 (write var10 var8 (O_TSLL (TSLL nullAddr (|TSLL::prev| (getTSLL (read var10 var8))) (|TSLL::opt| (getTSLL (read var10 var8))) (|TSLL::data| (getTSLL (read var10 var8))))))) (= var6 var8))) (and (= var5 (write var7 var6 (O_TSLL (TSLL (|TSLL::next| (getTSLL (read var7 var6))) nullAddr (|TSLL::opt| (getTSLL (read var7 var6))) (|TSLL::data| (getTSLL (read var7 var6))))))) (= var4 var6))))) (and (= var16 (write var5 var4 (O_TSLL (TSLL (|TSLL::next| (getTSLL (read var5 var4))) (|TSLL::prev| (getTSLL (read var5 var4))) (|TSLL::opt| (getTSLL (read var5 var4))) 2)))) (= var13 var4))) (and (= var3 (write var17 var14 (O_TSLL (TSLL (|TSLL::next| (getTSLL (read var17 var14))) (|TSLL::prev| (getTSLL (read var17 var14))) var12 (|TSLL::data| (getTSLL (read var17 var14))))))) (= var2 var14))) (and (= var1 (write var3 (|TSLL::opt| (getTSLL (read var3 var2))) (O_TSLL (TSLL nullAddr (|TSLL::prev| (getTSLL (read var3 (|TSLL::opt| (getTSLL (read var3 var2)))))) (|TSLL::opt| (getTSLL (read var3 (|TSLL::opt| (getTSLL (read var3 var2)))))) (|TSLL::data| (getTSLL (read var3 (|TSLL::opt| (getTSLL (read var3 var2)))))))))) (= var0 var2))))) (inv_main1001_2 var1 var0 var0))))
(assert (forall ((var0 Addr) (var1 Heap) (var2 Addr) (var3 Heap) (var4 Addr) (var5 Heap) (var6 Addr) (var7 Heap) (var8 Addr) (var9 TSLL) (var10 Heap) (var11 Int) (var12 Int) (var13 Heap)) (or (not (and (inv_main997_2 var13) (and (and (and (not (= var12 0)) (and (= var11 0) (and (and (and (= var10 (newHeap (alloc var13 (O_TSLL var9)))) (= var8 (newAddr (alloc var13 (O_TSLL var9))))) (and (= var7 (write var10 var8 (O_TSLL (TSLL nullAddr (|TSLL::prev| (getTSLL (read var10 var8))) (|TSLL::opt| (getTSLL (read var10 var8))) (|TSLL::data| (getTSLL (read var10 var8))))))) (= var6 var8))) (and (= var5 (write var7 var6 (O_TSLL (TSLL (|TSLL::next| (getTSLL (read var7 var6))) nullAddr (|TSLL::opt| (getTSLL (read var7 var6))) (|TSLL::data| (getTSLL (read var7 var6))))))) (= var4 var6))))) (and (= var3 (write var5 var4 (O_TSLL (TSLL (|TSLL::next| (getTSLL (read var5 var4))) (|TSLL::prev| (getTSLL (read var5 var4))) (|TSLL::opt| (getTSLL (read var5 var4))) 1)))) (= var2 var4))) (and (= var1 (write var3 var2 (O_TSLL (TSLL (|TSLL::next| (getTSLL (read var3 var2))) (|TSLL::prev| (getTSLL (read var3 var2))) var2 (|TSLL::data| (getTSLL (read var3 var2))))))) (= var0 var2))))) (inv_main1001_2 var1 var0 var0))))
(assert (forall ((var0 Addr) (var1 Heap) (var2 Addr) (var3 Heap) (var4 Addr) (var5 Heap) (var6 Addr) (var7 Heap) (var8 Addr) (var9 TSLL) (var10 Heap) (var11 Int) (var12 Int) (var13 Heap)) (or (not (and (inv_main997_2 var13) (and (and (and (= var12 0) (and (= var11 0) (and (and (and (= var10 (newHeap (alloc var13 (O_TSLL var9)))) (= var8 (newAddr (alloc var13 (O_TSLL var9))))) (and (= var7 (write var10 var8 (O_TSLL (TSLL nullAddr (|TSLL::prev| (getTSLL (read var10 var8))) (|TSLL::opt| (getTSLL (read var10 var8))) (|TSLL::data| (getTSLL (read var10 var8))))))) (= var6 var8))) (and (= var5 (write var7 var6 (O_TSLL (TSLL (|TSLL::next| (getTSLL (read var7 var6))) nullAddr (|TSLL::opt| (getTSLL (read var7 var6))) (|TSLL::data| (getTSLL (read var7 var6))))))) (= var4 var6))))) (and (= var3 (write var5 var4 (O_TSLL (TSLL (|TSLL::next| (getTSLL (read var5 var4))) (|TSLL::prev| (getTSLL (read var5 var4))) (|TSLL::opt| (getTSLL (read var5 var4))) 0)))) (= var2 var4))) (and (= var1 (write var3 var2 (O_TSLL (TSLL (|TSLL::next| (getTSLL (read var3 var2))) (|TSLL::prev| (getTSLL (read var3 var2))) var2 (|TSLL::data| (getTSLL (read var3 var2))))))) (= var0 var2))))) (inv_main1001_2 var1 var0 var0))))
(assert (forall ((var0 Int) (var1 Addr) (var2 Addr) (var3 Heap)) (or (not (and (inv_main1001_2 var3 var2 var1) (= var0 0))) (inv_main_18 var3 var2 var2))))
(assert (forall ((var0 Addr) (var1 Addr) (var2 Addr) (var3 Heap) (var4 Addr) (var5 Addr) (var6 Heap) (var7 Int) (var8 Int) (var9 Addr) (var10 Addr) (var11 Addr) (var12 Addr) (var13 Addr) (var14 Heap) (var15 Heap) (var16 Addr) (var17 Addr) (var18 Heap)) (or (not (and (inv_main_18 var18 var17 var16) (and (and (and (and (= var15 var14) (= var13 var12)) (= var11 var10)) (= var9 (|TSLL::next| (getTSLL (read var14 var10))))) (and (and (and (not (= var8 0)) (and (and (= var7 2) (and (and (and (= var6 var18) (= var5 var17)) (= var4 var16)) (= var7 (|TSLL::data| (getTSLL (read var18 var16)))))) (and (and (and (= var3 var6) (= var2 var5)) (= var1 var4)) (= var0 (|TSLL::opt| (getTSLL (read var6 var4))))))) (and (and (and (= var14 var3) (= var12 var2)) (= var10 var1)) (or (and (= var0 var1) (= var8 1)) (and (not (= var0 var1)) (= var8 0))))) (not (= var16 nullAddr)))))) (inv_main_18 var15 var13 var9))))
(assert (forall ((var0 Addr) (var1 Addr) (var2 Heap)) (not (inv_main1009_12 var2 var1 var0))))
(check-sat)
